NAME : prob25a.7332.tour
COMMENT : Cost = 0_7332
COMMENT : Found by LKH [Keld Helsgaun] Sun Sep 17 01:06:22 2017
TYPE : TOUR
DIMENSION : 51
TOUR_SECTION
1
32
29
30
44
5
33
46
34
38
50
36
48
19
39
11
28
35
47
49
25
10
42
23
45
3
41
14
43
27
9
51
37
16
7
12
4
24
8
26
31
13
21
6
40
17
2
18
22
15
20
-1
EOF
